c Generated map
c Size: 9 * 9, weights in range: 1 to 10, walls: True, with ratio 0.05
c dim 7 of 8
c
p sp 81 129
c graph contains 81 nodes and 129 arcs
c
a 1 2 9
a 2 1 9
a 2 11 7
a 11 2 7
a 2 3 3
a 3 2 3
a 3 12 5
a 12 3 5
a 3 4 6
a 4 3 6
a 4 13 1
a 13 4 1
a 4 5 1
a 5 4 1
a 5 14 4
a 14 5 4
a 5 6 10
a 6 5 10
a 6 15 8
a 15 6 8
a 6 7 6
a 7 6 6
a 7 16 7
a 16 7 7
a 7 8 1
a 8 7 1
a 8 17 7
a 17 8 7
a 8 9 7
a 9 8 7
a 9 18 5
a 18 9 5
a 11 20 7
a 20 11 7
a 11 12 5
a 12 11 5
a 12 21 5
a 21 12 5
a 12 13 3
a 13 12 3
a 13 22 2
a 22 13 2
a 13 14 9
a 14 13 9
a 14 23 1
a 23 14 1
a 14 15 3
a 15 14 3
a 15 24 3
a 24 15 3
a 15 16 3
a 16 15 3
a 16 25 6
a 25 16 6
a 16 17 8
a 17 16 8
a 17 26 3
a 26 17 3
a 17 18 8
a 18 17 8
a 18 27 7
a 27 18 7
a 19 28 4
a 28 19 4
a 19 20 3
a 20 19 3
a 20 21 2
a 21 20 2
a 21 30 7
a 30 21 7
a 21 22 8
a 22 21 8
a 22 31 8
a 31 22 8
a 22 23 9
a 23 22 9
a 23 32 1
a 32 23 1
a 23 24 7
a 24 23 7
a 24 33 4
a 33 24 4
a 24 25 7
a 25 24 7
a 25 26 9
a 26 25 9
a 26 35 5
a 35 26 5
a 26 27 7
a 27 26 7
a 27 36 6
a 36 27 6
a 28 37 1
a 37 28 1
a 30 39 9
a 39 30 9
a 30 31 4
a 31 30 4
a 31 40 9
a 40 31 9
a 31 32 10
a 32 31 10
a 32 41 5
a 41 32 5
a 32 33 7
a 33 32 7
a 33 42 8
a 42 33 8
a 35 44 5
a 44 35 5
a 35 36 1
a 36 35 1
a 36 45 5
a 45 36 5
a 37 46 10
a 46 37 10
a 37 38 5
a 38 37 5
a 38 39 2
a 39 38 2
a 39 48 6
a 48 39 6
a 39 40 3
a 40 39 3
a 40 49 5
a 49 40 5
a 40 41 5
a 41 40 5
a 41 50 7
a 50 41 7
a 41 42 3
a 42 41 3
a 42 51 7
a 51 42 7
a 42 43 10
a 43 42 10
a 43 52 5
a 52 43 5
a 43 44 2
a 44 43 2
a 44 53 7
a 53 44 7
a 44 45 9
a 45 44 9
a 45 54 7
a 54 45 7
a 46 55 9
a 55 46 9
a 48 57 6
a 57 48 6
a 48 49 5
a 49 48 5
a 49 58 8
a 58 49 8
a 49 50 5
a 50 49 5
a 50 59 6
a 59 50 6
a 50 51 9
a 51 50 9
a 51 60 2
a 60 51 2
a 51 52 5
a 52 51 5
a 52 61 3
a 61 52 3
a 52 53 3
a 53 52 3
a 53 62 5
a 62 53 5
a 53 54 6
a 54 53 6
a 54 63 8
a 63 54 8
a 55 64 3
a 64 55 3
a 55 56 3
a 56 55 3
a 56 65 3
a 65 56 3
a 56 57 4
a 57 56 4
a 57 66 3
a 66 57 3
a 57 58 7
a 58 57 7
a 58 67 10
a 67 58 10
a 58 59 7
a 59 58 7
a 59 68 9
a 68 59 9
a 59 60 6
a 60 59 6
a 60 69 5
a 69 60 5
a 60 61 7
a 61 60 7
a 61 70 3
a 70 61 3
a 61 62 2
a 62 61 2
a 62 71 8
a 71 62 8
a 62 63 1
a 63 62 1
a 63 72 5
a 72 63 5
a 64 73 1
a 73 64 1
a 64 65 4
a 65 64 4
a 65 74 6
a 74 65 6
a 65 66 2
a 66 65 2
a 66 75 5
a 75 66 5
a 66 67 1
a 67 66 1
a 67 76 2
a 76 67 2
a 67 68 9
a 68 67 9
a 68 77 3
a 77 68 3
a 68 69 8
a 69 68 8
a 69 78 10
a 78 69 10
a 69 70 6
a 70 69 6
a 70 79 3
a 79 70 3
a 70 71 7
a 71 70 7
a 71 80 5
a 80 71 5
a 71 72 7
a 72 71 7
a 72 81 4
a 81 72 4
a 73 74 8
a 74 73 8
a 74 75 3
a 75 74 3
a 75 76 3
a 76 75 3
a 76 77 8
a 77 76 8
a 77 78 9
a 78 77 9
a 78 79 4
a 79 78 4
a 79 80 5
a 80 79 5
a 80 81 1
a 81 80 1
